Assets/LKHProbs~/skull.64.tsp
NAME : GeneratedProblem
COMMENT : SVGCrosshatch
TYPE : TSP
DIMENSION : 36
EDGE_WEIGHT_TYPE : EUC_2D
NODE_COORD_SECTION
1 2800 7300
2 2800 7400
3 3200 7100
4 3200 7200
5 3200 7300
6 3200 7400
7 3300 7100
8 3300 7200
9 3300 7300
10 3300 7400
11 3400 6100
12 3400 6200
13 3400 6300
14 3400 6400
15 3400 6500
16 3400 6600
17 3400 6700
18 3400 6800
19 3400 6900
20 3400 7000
21 3400 7100
22 3400 7200
23 3400 7300
24 3400 7400
25 3500 6300
26 3500 6400
27 3500 6500
28 3500 6600
29 3500 6700
30 3500 6800
31 3500 6900
32 3500 7000
33 3500 7100
34 3500 7200
35 3500 7300
36 3500 7400
EOF
