Assets/LKHProbs~/skull.64.out.txt
NAME : GeneratedProblem.4324.tour
COMMENT : Length = 4324
COMMENT : Found by LKH [Keld Helsgaun] Sun Nov 25 13:17:43 2018
TYPE : TOUR
DIMENSION : 36
TOUR_SECTION
1
2
6
10
24
36
35
23
9
8
22
34
33
32
31
30
29
28
27
26
25
11
12
13
14
15
16
17
18
19
20
21
7
3
4
5
-1
EOF
